Route #1: 1 31 8 19 15 25 44 28 17 43 11 4 48 1
Route #2: 1 42 32 34 23 13 39 10 24 36 5 1
Route #3: 1 35 50 41 16 7 3 33 49 45 1
Route #4: 1 29 18 20 26 1
Route #5: 1 21 38 12 9 6 22 46 37 1
Route #6: 1 30 47 40 27 1
Route #7: 1 2 14 1
cost: 838
